c triangle K3 is not 2-colorable
c variable 1: vertex a is red (false means blue)
c variable 2: vertex b is red (false means blue)
c variable 3: vertex c is red (false means blue)
c each edge requires endpoints to have different colors:
c   (u or v) and (not u or not v)
p cnf 3 6
1 2 0
-1 -2 0
2 3 0
-2 -3 0
1 3 0
-1 -3 0
